CPXPARAM_TimeLimit                               3600
CPXPARAM_Read_DataCheck                          1
CPXPARAM_MIP_Limits_Solutions                    1
Tried aggregator 1 time.
MIP Presolve eliminated 3490 rows and 0 columns.
MIP Presolve modified 6130 coefficients.
Reduced MIP has 225690 rows, 72601 columns, and 815222 nonzeros.
Reduced MIP has 3800 binaries, 0 generals, 0 SOSs, and 0 indicators.
Presolve time = 0.21 sec. (300.40 ticks)
Found incumbent of value 15405.000000 after 0.39 sec. (514.65 ticks)

Root node processing (before b&c):
  Real time             =    0.40 sec. (518.20 ticks)
Parallel b&c, 8 threads:
  Real time             =    0.00 sec. (0.00 ticks)
  Sync time (average)   =    0.00 sec.
  Wait time (average)   =    0.00 sec.
                          ------------
Total (root+branch&cut) =    0.40 sec. (518.20 ticks)
